unsat
(:SPACER-cluster-out-of-gas           6
 :SPACER-conj                         51
 :SPACER-expand-pob-undef             1
 :SPACER-inductive-gen                434
 :SPACER-inductive-gen-weaken-fail    824
 :SPACER-inductive-gen-weaken-success 61
 :SPACER-inductive-level              12
 :SPACER-max-depth                    15
 :SPACER-max-query-lvl                15
 :SPACER-non-local-gen                89
 :SPACER-num-active-lemmas            105
 :SPACER-num-cant-abstract            1
 :SPACER-num-ctp-blocked              376
 :SPACER-num-invariants               162
 :SPACER-num-is_invariant             2153
 :SPACER-num-lemma-jumped             27
 :SPACER-num-lemmas                   446
 :SPACER-num-non-lin                  4
 :SPACER-num-pobs                     300
 :SPACER-num-propagations             1386
 :SPACER-num-queries                  290
 :SPACER-num-reach-queries            23
 :SPACER-num-reuse-reach-facts        20
 :SPACER-subsume-failed               12
 :SPACER-subsume-pob                  69
 :SPACER-subsume-success              163
 :added-eqs                           222818
 :arith-assert-diseq                  223462
 :arith-assert-lower                  608322
 :arith-assert-upper                  689428
 :arith-bound-prop                    14304
 :arith-branch-var                    8
 :arith-conflicts                     976
 :arith-eq-adapter                    24550
 :arith-fixed-eqs                     83780
 :arith-gcd-conflicts                 6
 :arith-gcd-tests                     824
 :arith-ineq-splits                   8
 :arith-num-rows                      326
 :arith-offset-eqs                    31660
 :arith-patches                       34
 :arith-patches_succ                  26
 :arith-pivots                        17020
 :arith-row-summations                462314
 :arith-tableau-max-columns           522
 :arith-tableau-max-rows              326
 :conflicts                           10218
 :decisions                           1805570
 :del-clause                          15800
 :final-checks                        3140
 :iuc_solver.num_proxies              1559
 :max-memory                          104.87
 :memory                              100.20
 :minimized-lits                      3432
 :mk-bool-var                         48432
 :mk-clause                           42586
 :num-allocs                          54781497583.00
 :num-checks                          9638
 :pool_solver.checks                  4819
 :pool_solver.checks.sat              1394
 :pool_solver.checks.undef            169
 :propagations                        3688872
 :rlimit-count                        23511463
 :time                                12.95
 :time.iuc_solver.get_iuc             1.16
 :time.iuc_solver.get_iuc.hyp_reduce1 0.46
 :time.iuc_solver.get_iuc.hyp_reduce2 0.66
 :time.iuc_solver.get_iuc.learn_core  0.14
 :time.pool_solver.proof              0.21
 :time.pool_solver.smt.total          7.66
 :time.pool_solver.smt.total.sat      3.84
 :time.pool_solver.smt.total.undef    0.59
 :time.spacer.ctp                     0.24
 :time.spacer.init_rules              0.00
 :time.spacer.mbp                     0.08
 :time.spacer.solve                   12.80
 :time.spacer.solve.propagate         2.82
 :time.spacer.solve.reach             9.98
 :time.spacer.solve.reach.children    0.34
 :time.spacer.solve.reach.cluster     1.74
 :time.spacer.solve.reach.gen.global  0.83
 :time.spacer.solve.reach.gen.ind     3.48
 :time.spacer.solve.reach.is-reach    0.04)
(:max-memory   104.87
 :memory       100.20
 :num-allocs   54781497583.00
 :rlimit-count 23511463
 :time         12.95
 :total-time   12.96)
